n = 25;
lu = [|-394, -358
      |492, 598
      |-261, -162
      |-354, 325
      |-194, 230
      |-330, -189
      |-292, 177
      |-357, 616
      |-241, -213
      |-569, 208
      |-483, -134
      |-431, 235
      |-360, 19
      |-264, 412
      |-71, 439
      |-149, 294
      |-356, -216
      |-598, -43
      |-464, -93
      |440, 467
      |-372, -54
      |229, 554
      |-282, -212
      |-484, 128
      |-559, 254|];
